p cnf 10 40
-1 -2 -4 -7 0
-1 -2  4  7 0
 1 -2 -4  7 0
 1  2 -4 -7 0
-1  2 -4  7 0
 1 -2  4 -7 0
-1  2  4 -7 0
 1  2  4  7 0
-3 -5 -8 -1 0
-3 -5  8  1 0
 3 -5 -8  1 0
 3  5 -8 -1 0
-3  5 -8  1 0
 3 -5  8 -1 0
-3  5  8 -1 0
 3  5  8  1 0
-6 -9 -2 -3 0
-6 -9  2  3 0
 6 -9 -2  3 0
 6  9 -2 -3 0
-6  9 -2  3 0
 6 -9  2 -3 0
-6  9  2 -3 0
 6  9  2  3 0
-10 -4 -5 -6 0
-10 -4  5  6 0
 10 -4 -5  6 0
 10  4 -5 -6 0
-10  4 -5  6 0
 10 -4  5 -6 0
-10  4  5 -6 0
 10  4  5  6 0
-7 -8 -9 -10 0
-7 -8  9  10 0
 7 -8 -9  10 0
 7  8 -9 -10 0
-7  8 -9  10 0
 7 -8  9 -10 0
-7  8  9 -10 0
 7  8  9  10 0
